
Gurobi 9.5.2 (win64) logging started Mon Mar 27 20:27:39 2023

Set parameter LogFile to value "2023-03-27_20hr-25min-09sec/Nodes30_Arcs55_LocNodes22/Formulation-2Instance-3.log"
Set parameter TimeLimit to value 600
Set parameter IntFeasTol to value 1e-09
Set parameter DualReductions to value 0
Set parameter NonConvex to value 2
Gurobi Optimizer version 9.5.2 build v9.5.2rc0 (win64)
Thread count: 4 physical cores, 8 logical processors, using up to 8 threads
Optimize a model with 138 rows, 244 columns and 538 nonzeros
Model fingerprint: 0x936eb8ad
Model has 85 quadratic objective terms
Model has 85 SOS constraints
Variable types: 222 continuous, 22 integer (22 binary)
Coefficient statistics:
  Matrix range     [8e-02, 2e+02]
  Objective range  [2e-02, 1e+03]
  QObjective range [2e-01, 8e+00]
  Bounds range     [1e+00, 1e+00]
  RHS range        [2e-02, 2e+03]
Presolve removed 2 rows and 5 columns
Presolve time: 0.00s
Presolved: 136 rows, 239 columns, 524 nonzeros
Presolved model has 81 SOS constraint(s)
Presolved model has 81 quadratic objective terms
Variable types: 217 continuous, 22 integer (22 binary)

Root relaxation: objective 3.646705e+05, 326 iterations, 0.00 seconds (0.00 work units)

    Nodes    |    Current Node    |     Objective Bounds      |     Work
 Expl Unexpl |  Obj  Depth IntInf | Incumbent    BestBd   Gap | It/Node Time

     0     0 364670.509    0    9          - 364670.509      -     -    0s
H    0     0                    362019.91453 364670.509  0.73%     -    0s
H    0     0                    364183.87088 364670.509  0.13%     -    0s
     0     0 364311.691    0    9 364183.871 364311.691  0.04%     -    0s
     0     0 364223.005    0    9 364183.871 364223.005  0.01%     -    0s

Cutting planes:
  MIR: 2

Explored 1 nodes (332 simplex iterations) in 0.07 seconds (0.02 work units)
Thread count was 8 (of 8 available processors)

Solution count 2: 364184 362020 

Optimal solution found (tolerance 1.00e-04)
Best objective 3.641838708794e+05, best bound 3.642117692213e+05, gap 0.0077%

User-callback calls 229, time in user-callback 0.00 sec
